22729
78,30,39,96,5,37,33,76,13,95,82,2,54,40,64,44,50,85,68,73,69,67,28,93,1,92,8,42,89,31,80,56,97,4,65,26,66,19,75,63,6,49,90,79,53,88,16,70,22,94,18,24,38,99,36,84,10,72,21,74,59,17,15,11,32,45,23,98,91,47,58,61,81,25,51,87,57,9,7,20,77,60,62,35,86,27,12,55,83,34,29,46,43,3,14,71,41,100,48,52,78
